benchmarks_CP/INST_36x36/55/inst36x36_55_32.dzn
S=6;
start=[|
34,	-1,	9,	31,	22,	28,	32,	-1,	36,	24,	16,	-1,	-1,	-1,	29,	8,	6,	18,	19,	10,	-1,	12,	27,	-1,	-1,	13,	4,	14,	-1,	-1,	-1,	17,	15,	-1,	-1,	26|
-1,	-1,	-1,	4,	1,	18,	-1,	29,	11,	-1,	10,	15,	9,	30,	-1,	-1,	-1,	-1,	6,	-1,	31,	22,	33,	5,	23,	26,	-1,	-1,	34,	35,	21,	-1,	-1,	27,	-1,	-1|
6,	5,	21,	-1,	-1,	-1,	35,	3,	27,	2,	13,	25,	1,	15,	-1,	34,	10,	-1,	18,	4,	14,	32,	26,	36,	-1,	-1,	-1,	-1,	11,	-1,	24,	16,	23,	28,	19,	20|
25,	11,	8,	-1,	-1,	12,	19,	17,	-1,	-1,	30,	-1,	-1,	-1,	2,	-1,	14,	36,	15,	-1,	9,	-1,	24,	20,	27,	1,	-1,	21,	16,	-1,	31,	4,	22,	32,	-1,	-1|
27,	-1,	15,	-1,	33,	-1,	4,	-1,	26,	-1,	-1,	20,	-1,	16,	22,	-1,	25,	-1,	-1,	-1,	-1,	11,	23,	17,	10,	-1,	28,	36,	-1,	18,	14,	5,	1,	-1,	-1,	29|
16,	32,	14,	-1,	24,	10,	22,	-1,	-1,	-1,	28,	-1,	23,	17,	-1,	-1,	-1,	27,	35,	-1,	-1,	25,	-1,	-1,	5,	15,	-1,	-1,	30,	19,	-1,	33,	-1,	-1,	-1,	-1|
36,	-1,	33,	-1,	-1,	17,	10,	26,	34,	-1,	-1,	32,	6,	13,	-1,	-1,	8,	28,	3,	35,	-1,	-1,	2,	15,	-1,	-1,	-1,	-1,	-1,	-1,	5,	19,	25,	-1,	-1,	9|
30,	-1,	35,	3,	10,	23,	27,	-1,	7,	-1,	17,	-1,	14,	-1,	9,	22,	-1,	-1,	8,	5,	18,	26,	-1,	24,	-1,	-1,	-1,	11,	-1,	-1,	-1,	13,	-1,	29,	-1,	-1|
-1,	-1,	5,	1,	2,	32,	-1,	4,	-1,	-1,	-1,	-1,	-1,	-1,	-1,	-1,	27,	-1,	14,	21,	-1,	-1,	34,	25,	20,	-1,	22,	8,	7,	15,	-1,	23,	-1,	-1,	-1,	-1|
15,	8,	-1,	11,	-1,	7,	33,	-1,	19,	21,	-1,	30,	32,	-1,	-1,	-1,	18,	-1,	-1,	-1,	10,	27,	22,	-1,	-1,	-1,	9,	28,	17,	-1,	12,	-1,	-1,	35,	14,	36|
28,	6,	-1,	13,	-1,	29,	-1,	-1,	-1,	-1,	25,	-1,	17,	-1,	-1,	5,	30,	4,	-1,	7,	36,	31,	-1,	9,	-1,	33,	-1,	10,	-1,	-1,	27,	-1,	8,	22,	-1,	15|
9,	-1,	-1,	-1,	-1,	14,	2,	-1,	15,	6,	-1,	16,	-1,	23,	-1,	24,	21,	34,	-1,	19,	13,	-1,	-1,	11,	-1,	35,	27,	-1,	36,	12,	-1,	-1,	10,	1,	-1,	-1|
7,	36,	20,	23,	-1,	-1,	-1,	34,	32,	-1,	11,	33,	16,	21,	27,	2,	5,	31,	12,	6,	24,	-1,	-1,	22,	-1,	30,	35,	19,	18,	10,	-1,	26,	-1,	25,	-1,	13|
18,	25,	-1,	-1,	-1,	-1,	28,	23,	-1,	-1,	14,	9,	24,	-1,	-1,	-1,	-1,	17,	34,	1,	16,	-1,	10,	27,	-1,	-1,	13,	6,	22,	11,	4,	20,	-1,	-1,	-1,	12|
-1,	10,	-1,	-1,	-1,	-1,	15,	16,	3,	-1,	-1,	26,	-1,	-1,	36,	-1,	13,	12,	-1,	-1,	5,	2,	-1,	18,	-1,	4,	-1,	-1,	33,	-1,	1,	-1,	-1,	31,	11,	-1|
-1,	13,	-1,	2,	-1,	11,	5,	-1,	24,	-1,	22,	10,	28,	-1,	6,	29,	35,	-1,	26,	-1,	-1,	36,	-1,	32,	31,	-1,	-1,	1,	-1,	-1,	34,	-1,	-1,	-1,	23,	-1|
-1,	-1,	-1,	-1,	16,	-1,	-1,	-1,	2,	18,	4,	-1,	-1,	22,	33,	9,	-1,	11,	-1,	28,	17,	14,	31,	13,	-1,	-1,	-1,	-1,	-1,	-1,	6,	15,	-1,	10,	36,	-1|
-1,	-1,	29,	-1,	-1,	-1,	31,	13,	-1,	12,	-1,	21,	34,	25,	4,	1,	23,	-1,	-1,	-1,	11,	-1,	-1,	-1,	9,	-1,	36,	26,	-1,	-1,	7,	14,	-1,	18,	-1,	5|
12,	15,	3,	6,	5,	-1,	18,	-1,	10,	13,	19,	-1,	31,	-1,	21,	23,	11,	-1,	-1,	24,	-1,	-1,	-1,	-1,	-1,	17,	-1,	34,	9,	33,	-1,	-1,	14,	36,	-1,	25|
-1,	9,	-1,	-1,	21,	-1,	-1,	33,	-1,	-1,	23,	-1,	22,	24,	34,	10,	-1,	20,	-1,	29,	12,	18,	-1,	2,	35,	-1,	-1,	-1,	-1,	-1,	15,	32,	-1,	13,	1,	-1|
-1,	-1,	-1,	36,	-1,	-1,	-1,	14,	-1,	-1,	15,	-1,	27,	-1,	18,	-1,	3,	-1,	9,	26,	1,	-1,	20,	-1,	21,	-1,	10,	-1,	8,	-1,	-1,	12,	31,	-1,	-1,	17|
-1,	17,	23,	-1,	19,	-1,	7,	-1,	-1,	29,	31,	4,	13,	-1,	-1,	-1,	36,	2,	5,	27,	-1,	-1,	-1,	-1,	11,	28,	-1,	22,	12,	16,	35,	34,	30,	-1,	-1,	-1|
22,	27,	-1,	18,	13,	-1,	6,	5,	-1,	26,	1,	2,	25,	-1,	-1,	-1,	-1,	-1,	-1,	36,	35,	-1,	30,	4,	-1,	-1,	-1,	15,	-1,	32,	-1,	7,	-1,	3,	10,	28|
-1,	33,	-1,	-1,	-1,	-1,	-1,	-1,	12,	-1,	21,	-1,	-1,	32,	-1,	-1,	29,	-1,	-1,	14,	15,	10,	13,	19,	-1,	-1,	20,	-1,	-1,	-1,	-1,	9,	11,	23,	22,	-1|
-1,	31,	30,	-1,	36,	-1,	9,	-1,	-1,	4,	8,	-1,	18,	-1,	-1,	11,	15,	23,	10,	17,	27,	5,	16,	34,	24,	12,	1,	-1,	25,	20,	-1,	-1,	-1,	21,	-1,	2|
4,	-1,	-1,	14,	3,	26,	29,	2,	-1,	-1,	32,	19,	-1,	34,	-1,	30,	20,	-1,	7,	-1,	22,	24,	6,	1,	-1,	21,	-1,	9,	5,	27,	11,	36,	28,	-1,	-1,	23|
13,	16,	-1,	-1,	-1,	-1,	17,	-1,	14,	-1,	7,	-1,	-1,	36,	32,	-1,	-1,	-1,	2,	18,	-1,	9,	-1,	23,	34,	22,	-1,	29,	-1,	-1,	8,	-1,	12,	-1,	26,	24|
2,	23,	17,	-1,	-1,	-1,	1,	24,	-1,	5,	-1,	34,	19,	-1,	25,	-1,	22,	6,	4,	30,	-1,	-1,	11,	-1,	8,	-1,	-1,	-1,	-1,	28,	-1,	18,	29,	16,	15,	-1|
1,	12,	-1,	-1,	11,	24,	30,	-1,	13,	15,	-1,	-1,	-1,	-1,	10,	17,	28,	5,	29,	8,	25,	-1,	14,	-1,	19,	-1,	-1,	23,	-1,	4,	9,	22,	7,	-1,	27,	-1|
-1,	-1,	-1,	22,	-1,	-1,	-1,	10,	18,	23,	-1,	-1,	-1,	1,	-1,	-1,	-1,	9,	36,	32,	-1,	13,	21,	-1,	14,	-1,	11,	17,	2,	-1,	33,	-1,	-1,	5,	-1,	-1|
5,	30,	19,	-1,	32,	-1,	23,	-1,	-1,	-1,	-1,	-1,	-1,	-1,	-1,	18,	-1,	16,	13,	-1,	-1,	-1,	8,	14,	-1,	9,	-1,	12,	-1,	17,	-1,	11,	33,	24,	31,	27|
3,	-1,	-1,	16,	-1,	25,	-1,	19,	4,	-1,	-1,	-1,	-1,	-1,	30,	-1,	24,	7,	-1,	-1,	23,	35,	36,	-1,	15,	11,	-1,	20,	28,	22,	17,	-1,	18,	26,	9,	34|
-1,	18,	13,	-1,	-1,	21,	-1,	-1,	16,	-1,	3,	-1,	36,	5,	28,	27,	-1,	29,	-1,	11,	-1,	19,	-1,	-1,	6,	-1,	32,	-1,	-1,	24,	22,	-1,	20,	12,	7,	-1|
31,	14,	-1,	-1,	-1,	9,	24,	35,	-1,	27,	26,	17,	11,	-1,	13,	32,	-1,	-1,	25,	-1,	30,	-1,	18,	28,	36,	34,	-1,	-1,	-1,	7,	-1,	3,	-1,	15,	16,	1|
11,	-1,	7,	-1,	-1,	36,	21,	-1,	29,	28,	-1,	12,	-1,	20,	23,	-1,	-1,	22,	-1,	2,	-1,	-1,	-1,	16,	-1,	19,	5,	-1,	13,	-1,	-1,	10,	-1,	14,	-1,	-1|
-1,	28,	24,	-1,	20,	22,	11,	6,	8,	9,	-1,	7,	33,	12,	17,	25,	1,	26,	32,	15,	-1,	-1,	5,	31,	16,	-1,	14,	35,	27,	3,	-1,	29,	36,	30,	-1,	-1|];
